(define-fun
  h3
  ((x Int) (y Int)) Int (- y 1))
(define-fun
  h1
  ((x Int) (y Int)) Int y)
(define-fun
  g3
  ((x Int)) Int x)
(define-fun
  g2
  ((x Int)) Int x)
(define-fun
  g1
  ((x Int) (y Int)) Int (+ (- (* 2 (+ (* 2 (* 2 (+ y y))) y)) x) y))
(define-funs-rec
  ((v1
    ((x Int) (y Int) (z Int)) Int)
   (u1
    ((x Int) (y Int) (z Int)) Int))
  ((ite (<= x 0) z (g1 (u1 (- x 1) y z) (v1 (- x 1) y z)))
   (ite (<= x 0) y (v1 (- x 1) y z))))
(define-fun
  w1
  ((x Int) (y Int)) Int (u1 y 1 1))
(define-fun
  g0
  ((x Int)) Int x)
(define-fun
  f3
  ((x Int) (y Int)) Int (- (* (+ 1 (+ 2 (* 2 (* 2 (+ 2 2))))) x) y))
(define-funs-rec
  ((u3
    ((x Int) (y Int) (z Int)) Int)
   (v3
    ((x Int) (y Int) (z Int)) Int))
  ((ite (<= x 0) y (f3 (u3 (- x 1) y z) (v3 (- x 1) y z)))
   (ite (<= x 0) z (u3 (- x 1) y z))))
(define-fun
  w3
  ((x Int) (y Int)) Int (u3 (h3 x y) 1 1))
(define-fun
  f2
  ((x Int) (y Int)) Int (- (w3 x y) x))
(define-fun-rec
  u2
  ((x Int) (y Int)) Int (ite (<= x 0) y (f2 (u2 (- x 1) y) x)))
(define-fun
  v2
  ((x Int)) Int (u2 x 0))
(define-fun
  f1
  ((x Int) (y Int)) Int y)
(define-fun
  f0
  ((x Int) (y Int)) Int (- (w1 x y) x))
(define-fun-rec
  u0
  ((x Int) (y Int)) Int (ite (<= x 0) y (f0 (u0 (- x 1) y) x)))
(define-fun
  v0
  ((x Int)) Int (u0 x 0))
(assert-not
  (forall ((c Int)) (or (not (>= c 0)) (= (v0 c) (v2 c)))))
